
Log started (V12.10.0.0) Fri Apr 23 07:50:35 2021


Problem 'asset.lp' read.
Read time = 0.01 sec. (1.24 ticks)
New value for default parallel thread count: 1
New value for time limit in seconds: 150
Version identifier: 12.10.0.0 | 2019-11-26 | 843d4de
CPXPARAM_Threads                                 1
CPXPARAM_TimeLimit                               150
Found incumbent of value 0.000000 after 0.00 sec. (0.28 ticks)
Tried aggregator 3 times.
MIP Presolve eliminated 6148 rows and 1576 columns.
MIP Presolve modified 7028 coefficients.
Aggregator did 2647 substitutions.
Reduced MIP has 2955 rows, 3651 columns, and 16639 nonzeros.
Reduced MIP has 3224 binaries, 352 generals, 0 SOSs, and 0 indicators.
Presolve time = 0.03 sec. (34.50 ticks)
Probing fixed 184 vars, tightened 15 bounds.
Probing time = 0.03 sec. (21.99 ticks)
Cover probing fixed 0 vars, tightened 25 bounds.
Tried aggregator 1 time.
Detecting symmetries...
MIP Presolve eliminated 240 rows and 221 columns.
MIP Presolve modified 468 coefficients.
Reduced MIP has 2715 rows, 3430 columns, and 15054 nonzeros.
Reduced MIP has 3018 binaries, 337 generals, 0 SOSs, and 0 indicators.
Presolve time = 0.01 sec. (14.28 ticks)
Probing time = 0.01 sec. (3.28 ticks)
Clique table members: 9541.
MIP emphasis: balance optimality and feasibility.
MIP search method: dynamic search.
Parallel mode: none, using 1 thread.
Root relaxation solution time = 0.07 sec. (100.44 ticks)

        Nodes                                         Cuts/
   Node  Left     Objective  IInf  Best Integer    Best Bound    ItCnt     Gap

*     0+    0                            0.0000      985.0000              --- 
      0     0      944.0454   457        0.0000      944.0454     1221     --- 
      0     0      940.0000   457        0.0000     Cuts: 342     2161     --- 
      0     0      940.0000   457        0.0000     Cuts: 778     3575     --- 
      0     0      939.8837   457        0.0000     Cuts: 313     4851     --- 
*     0+    0                           75.0000      939.8837              --- 
*     0+    0                           80.0000      939.8837              --- 
*     0+    0                          140.0000      939.8837           571.35%
      0     0        cutoff            140.0000      939.8837     4851  571.35%
      0     0      939.7501   457      140.0000     Cuts: 778     6335  571.25%
      0     0      939.4929   457      140.0000     Cuts: 778     9748  571.07%
Detecting symmetries...
      0     0      939.4929   457      140.0000     Cuts: 778    11652  571.07%
*     0+    0                          165.0000      939.4929           469.39%
*     0+    0                          205.0000      939.4929           358.29%
*     0+    0                          240.0000      939.4929           291.46%
*     0+    0                          250.0000      939.4929           275.80%
*     0+    0                          355.0000      939.4929           164.65%
*     0+    0                          395.0000      939.4929           137.85%
      0     0        cutoff            395.0000      939.4929    11652  137.85%
Detecting symmetries...
      0     2      939.4929   456      395.0000      939.4929    11652  137.85%
Elapsed time = 3.68 sec. (5212.42 ticks, tree = 0.01 MB, solutions = 9)
      1     3      939.4929   533      395.0000      939.4929    13824  137.85%
      3     5      939.4929   469      395.0000      939.4929    15197  137.85%
      7     9      939.4929   401      395.0000      939.4929    16652  137.85%
     10    12      939.4912   429      395.0000      939.4929    18137  137.85%
     13    15      939.3529   379      395.0000      939.4929    19612  137.85%
     20    22      939.3116   417      395.0000      939.4929    21229  137.85%
     22    24      934.2254   412      395.0000      939.4929    23940  137.85%
     25    27      925.0000   382      395.0000      939.4929    25257  137.85%
     30    32      933.6637   434      395.0000      939.4929    27065  137.85%
     68    67      905.0000   325      395.0000      939.4929    30681  137.85%
Elapsed time = 6.33 sec. (9305.98 ticks, tree = 0.37 MB, solutions = 9)
    100    89      739.7525   158      395.0000      939.4929    37993  137.85%
    186   155      939.4929   510      395.0000      939.4929    44077  137.85%
    191   160      935.0000   447      395.0000      939.4929    51503  137.85%
    194   163      930.0000   444      395.0000      939.4929    58258  137.85%
    199   168      930.0000   436      395.0000      939.4929    65475  137.85%
    201   170      929.8860   484      395.0000      939.4929    71841  137.85%
    203   172      929.9819   439      395.0000      939.4929    77950  137.85%
    211   180      927.7778   406      395.0000      939.4929    84303  137.85%
    225   194      908.8116   386      395.0000      939.4929    90573  137.85%
    233   202      902.1225   377      395.0000      939.4929    97669  137.85%
Elapsed time = 14.09 sec. (20777.17 ticks, tree = 0.90 MB, solutions = 9)
    277   246      844.5472   316      395.0000      939.4929   106328  137.85%
    297   260      935.1443   478      395.0000      939.4929   109827  137.85%
    310   273      930.0000   487      395.0000      939.4929   114760  137.85%
    336   299      924.8090   436      395.0000      939.4929   123221  137.85%
    367   330      917.8202   422      395.0000      939.4929   129474  137.85%
    402   365      939.4550   527      395.0000      939.4929   136908  137.85%
    419   382      936.3084   529      395.0000      939.4929   144206  137.85%
    430   393      916.2608   376      395.0000      939.4929   149063  137.85%
    440   403      913.3419   362      395.0000      939.4929   150551  137.85%
*   504+  464                          400.0000      939.4929           134.87%
*   505+  465                          465.0000      939.4929           102.04%
*   505+  465                          485.0000      939.4929            93.71%
*   505+  465                          495.0000      939.4929            89.80%
    505   467      939.4929   532      495.0000      939.4929   157248   89.80%
Elapsed time = 23.07 sec. (34172.14 ticks, tree = 6.56 MB, solutions = 13)
*   506+  466                          535.0000      939.4929            75.61%
    507   469      939.4443   524      535.0000      939.4929   166993   75.61%
    514   476      937.2971   516      535.0000      939.4929   173287   75.61%
    531   493      930.0000   433      535.0000      939.4929   178118   75.61%
    537   499      911.8340   452      535.0000      939.4929   183874   75.61%
    555   517      875.3938   318      535.0000      939.4929   190268   75.61%
    601   563      811.0108   258      535.0000      939.4929   194435   75.61%

Performing restart 1

Repeating presolve.
Tried aggregator 1 time.
MIP Presolve eliminated 6 rows and 3 columns.
MIP Presolve modified 4438 coefficients.
Reduced MIP has 2709 rows, 3427 columns, and 12611 nonzeros.
Reduced MIP has 3015 binaries, 337 generals, 0 SOSs, and 0 indicators.
Presolve time = 0.01 sec. (11.47 ticks)
Tried aggregator 1 time.
Reduced MIP has 2709 rows, 3427 columns, and 12611 nonzeros.
Reduced MIP has 3015 binaries, 337 generals, 0 SOSs, and 0 indicators.
Presolve time = 0.01 sec. (8.64 ticks)
Represolve time = 0.08 sec. (61.44 ticks)
    616     0      914.1105   552      535.0000     Cuts: 746   205813   70.86%
    616     0      899.5427   552      535.0000     Cuts: 502   208273   68.14%
    616     0      889.6210   552      535.0000     Cuts: 474   210814   66.28%
    616     0      884.8415   552      535.0000     Cuts: 520   213498   65.39%
    616     0      881.6788   552      535.0000     Cuts: 596   215762   64.80%
    616     0      878.5293   552      535.0000     Cuts: 414   217379   64.21%
    616     0      876.2669   552      535.0000     Cuts: 351   219111   63.79%
    616     0      875.2418   552      535.0000     Cuts: 391   220532   63.60%
    616     0      874.5799   552      535.0000     Cuts: 465   222225   63.47%
    616     0      874.1509   552      535.0000     Cuts: 360   223790   63.39%
    616     0      873.5508   552      535.0000     Cuts: 384   224880   63.28%
    616     0      873.2004   552      535.0000     Cuts: 366   226053   63.22%
    616     0      872.9116   552      535.0000     Cuts: 309   226735   63.16%
    616     0      872.1774   552      535.0000     Cuts: 340   228409   63.02%
    616     0      871.7205   552      535.0000     Cuts: 341   229588   62.94%
    616     0      871.3162   552      535.0000     Cuts: 261   230613   62.86%
    616     0      871.1715   552      535.0000     Cuts: 247   231394   62.84%
    616     0      870.8696   552      535.0000     Cuts: 231   232514   62.78%
    616     0      870.5348   552      535.0000     Cuts: 337   233780   62.72%
    616     0      870.4497   552      535.0000     Cuts: 343   234581   62.70%
    616     0      870.4163   552      535.0000     Cuts: 265   235207   62.69%
    616     0      870.4107   552      535.0000     Cuts: 194   235535   62.69%
    616     0      870.3338   552      535.0000     Cuts: 129   235940   62.68%
    616     0      869.6870   552      535.0000     Cuts: 306   237539   62.56%
    616     0      869.4862   552      535.0000     Cuts: 360   239562   62.52%
    616     0      869.2003   552      535.0000     Cuts: 345   240980   62.47%
    616     0      869.0233   552      535.0000     Cuts: 267   241821   62.43%
    616     0      868.5229   552      535.0000     Cuts: 348   243048   62.34%
    616     0      868.2590   552      535.0000     Cuts: 453   244224   62.29%
    616     0      867.9007   552      535.0000     Cuts: 317   245655   62.22%
    616     0      867.5249   552      535.0000     Cuts: 299   246702   62.15%
    616     0      867.4529   552      535.0000     Cuts: 319   247080   62.14%
*   616+    0                          580.0000      867.4529            49.56%
    616     0        cutoff            580.0000      867.4529   247080   49.56%
    616     2      867.4529   524      580.0000      867.3453   247080   49.54%
    618     4      865.8611   502      580.0000      866.4789   248988   49.39%
    621     7      840.4266   427      580.0000      866.4789   254424   49.39%
    623     9      862.1872   426      580.0000      866.4789   260208   49.39%
Elapsed time = 60.36 sec. (84253.26 ticks, tree = 0.02 MB, solutions = 15)
    626    12      862.0782   430      580.0000      866.4789   261039   49.39%
    629    13      846.5788   439      580.0000      866.4789   265521   49.39%
    634    16      838.4298   410      580.0000      866.4789   270065   49.39%
    639    21      839.3898   439      580.0000      866.4789   275687   49.39%
    645    27      840.3335   383      580.0000      866.4789   279440   49.39%
    649    31      840.1278   371      580.0000      866.4789   281814   49.39%
    656    38      837.8293   372      580.0000      866.4789   284879   49.39%
    661    43      829.3466   396      580.0000      866.4789   289421   49.39%
    666    47      829.4734   388      580.0000      866.4789   293853   49.39%
    676    53      827.4714   357      580.0000      866.4789   296133   49.39%
Elapsed time = 68.23 sec. (96744.05 ticks, tree = 0.34 MB, solutions = 15)
    684    61      824.5298   372      580.0000      866.4789   299609   49.39%
    686    63      826.3816   372      580.0000      866.4789   299635   49.39%
    700    73      817.7032   385      580.0000      866.4789   301608   49.39%
    704    77      813.1402   346      580.0000      866.4789   305401   49.39%
    713    86      811.3509   327      580.0000      866.4789   308171   49.39%
    716    89      804.9914   336      580.0000      866.4789   308623   49.39%
    736   109      801.2359   342      580.0000      866.4789   311947   49.39%
    750   119    infeasible            580.0000      866.4789   316466   49.39%
    756   123      839.0928   401      580.0000      866.4065   320318   49.38%
    763   130      833.6804   353      580.0000      866.4065   324463   49.38%
Elapsed time = 76.37 sec. (108757.23 ticks, tree = 2.18 MB, solutions = 15)
    777   144      827.0759   342      580.0000      866.4065   329038   49.38%
    790   157      825.0076   350      580.0000      866.4065   334270   49.38%
    812   178      807.7645   302      580.0000      866.4065   340123   49.38%
*   816+  180                          590.0000      866.4065            46.85%
    816   182      818.2430   342      590.0000      866.4065   340261   46.85%
    847   211      813.7332   325      590.0000      866.4065   345967   46.85%
    874   238      809.7621   300      590.0000      866.4065   350616   46.85%
    896   257      799.7530   279      590.0000      866.4065   353831   46.85%
*   916+  274                          600.0000      866.4065            44.40%
*   916+  274                          605.0000      866.4065            43.21%
    916   276      784.2074   261      605.0000      866.4065   355501   43.21%
    962   311    infeasible            605.0000      866.4065   360436   43.21%
    981   324      862.3642   504      605.0000      865.3134   363661   43.03%
Elapsed time = 84.50 sec. (120452.47 ticks, tree = 7.07 MB, solutions = 18)
    989   332      855.4277   399      605.0000      865.3134   367677   43.03%
    996   339      841.3859   379      605.0000      865.3134   370946   43.03%
   1016   359      814.6120   320      605.0000      865.3134   375303   43.03%
   1018   361      852.9718   461      605.0000      862.3638   378393   42.54%
   1026   369      842.0046   417      605.0000      862.3638   384403   42.54%
   1054   397      825.9729   345      605.0000      862.3638   390800   42.54%
   1084   427      810.7326   301      605.0000      862.3638   394181   42.54%
   1104   447      809.6707   308      605.0000      862.3638   396588   42.54%
*  1116+  457                          615.0000      862.3638            40.22%
*  1116+  457                          620.0000      862.3638            39.09%
   1116   459      808.4807   313      620.0000      862.3638   397807   39.09%
   1166   508      762.1566   316      620.0000      862.3638   401171   39.09%
Elapsed time = 93.75 sec. (133109.09 ticks, tree = 11.07 MB, solutions = 20)
   1188   526      860.2690   476      620.0000      862.3558   405231   39.09%
   1194   532      847.4343   396      620.0000      862.3558   409168   39.09%
   1216   554      829.7548   337      620.0000      862.3558   413007   39.09%
   1238   574      813.2341   325      620.0000      862.3558   418254   39.09%
   1271   607      789.4914   294      620.0000      862.3558   422618   39.09%
   1311   644      747.2228   273      620.0000      862.3558   425993   39.09%
   1319   649      847.4188   459      620.0000      862.3387   429475   39.09%
   1324   654      839.6825   442      620.0000      862.3387   434776   39.09%
   1332   660      814.3916   380      620.0000      862.3387   438846   39.09%
   1338   666      782.4362   370      620.0000      862.3387   443289   39.09%
Elapsed time = 103.49 sec. (146624.18 ticks, tree = 15.33 MB, solutions = 20)
   1350   678      765.6094   320      620.0000      862.3387   447341   39.09%
   1373   695      759.5847   281      620.0000      862.3387   452138   39.09%
*  1416+  724                          630.0000      862.3387            36.88%
   1416   726      720.5621   236      630.0000      862.3387   456177   36.88%
   1446   751      860.3942   446      630.0000      862.3387   460062   36.88%
   1457   762      854.7120   440      630.0000      862.3387   462676   36.88%
   1471   776      835.9808   355      630.0000      862.3387   466790   36.88%
   1495   800      824.9037   337      630.0000      862.3387   471694   36.88%
   1511   813      790.7661   346      630.0000      862.3387   475561   36.88%
   1516   816      779.4365   339      630.0000      862.3387   476247   36.88%
   1576   862      838.8762   424      630.0000      862.3380   489615   36.88%
Elapsed time = 115.59 sec. (163047.49 ticks, tree = 20.60 MB, solutions = 21)
   1705   979      854.2154   470      630.0000      862.3364   508574   36.88%
   1815  1077        cutoff            630.0000      862.3364   524546   36.88%
   1816  1078      849.0408   486      630.0000      862.1510   526889   36.85%
   1841  1099      854.1622   491      630.0000      862.1018   541911   36.84%
   1872  1124      826.8943   387      630.0000      862.1018   556954   36.84%
   1916  1162      783.5340   352      630.0000      862.1018   569296   36.84%
Starting limited solution polishing.
   2044  1278      857.5018   486      630.0000      862.0612   583319   36.84%
   2112  1345      815.7387   330      630.0000      862.0612   595363   36.84%
   2131  1360      850.1298   439      630.0000      861.7892   610203   36.79%
   2230  1450      846.8018   440      630.0000      861.6752   625861   36.77%
Elapsed time = 145.23 sec. (205057.21 ticks, tree = 32.23 MB, solutions = 21)
   2312  1527      848.6408   442      630.0000      861.6236   642033   36.77%
Advanced basis not built.

GUB cover cuts applied:  106
Clique cuts applied:  152
Cover cuts applied:  35
Implied bound cuts applied:  128
Flow cuts applied:  24
Mixed integer rounding cuts applied:  111
Zero-half cuts applied:  90
Lift and project cuts applied:  13
Gomory fractional cuts applied:  17

Root node processing (before b&c):
  Real time             =    3.66 sec. (5198.89 ticks)
Sequential b&c:
  Real time             =  146.34 sec. (206156.99 ticks)
                          ------------
Total (root+branch&cut) =  150.00 sec. (211355.88 ticks)

Solution pool: 22 solutions saved.

MIP - Time limit exceeded, integer feasible:  Objective =  6.3000000000e+02
Current MIP best bound =  8.6162355651e+02 (gap = 231.624, 36.77%)
Solution time =  150.00 sec.  Iterations = 642861  Nodes = 2316 (1530)
Deterministic time = 211355.90 ticks  (1409.00 ticks/sec)


Incumbent solution
Variable Name           Solution Value
F                           630.000000
y32                           1.000000
y147                          1.000000
y177                          1.000000
y92                           1.000000
y315                          1.000000
y196                          1.000000
y298                          1.000000
y318                          1.000000
y15                           1.000000
y34                           1.000000
y153                          1.000000
y88                           1.000000
y224                          1.000000
y18                           1.000000
y43                           1.000000
y139                          1.000000
y198                          1.000000
y56                           1.000000
y39                           1.000000
y237                          1.000000
y339                          1.000000
y241                          1.000000
y155                          1.000000
y26                           1.000000
y76                           1.000000
y211                          1.000000
y270                          1.000000
y20                           1.000000
y23                           1.000000
y299                          1.000000
y162                          1.000000
y77                           1.000000
y119                          1.000000
y187                          1.000000
y11                           1.000000
y58                           1.000000
y328                          1.000000
x72x196x1                     1.000000
x110x224x1                    2.000000
x200x299x1                    1.000000
x103x177x1                    1.000000
x260x15x1                     2.000000
x193x92x1                     1.000000
x193x298x1                    1.000000
x50x198x1                     1.000000
x285x298x1                    1.000000
x38x56x1                      1.000000
x72x196x2                     1.000000
x200x76x2                     1.000000
x264x339x2                    1.000000
x264x270x2                    1.000000
x103x147x2                    1.000000
x146x56x2                     1.000000
x73x39x2                      1.000000
x335x32x2                     2.000000
x276x315x2                    1.000000
x50x88x2                      1.000000
x285x39x2                     1.000000
x124x139x3                    2.000000
x290x26x3                     1.000000
x165x92x3                     1.000000
x288x88x3                     1.000000
x288x26x3                     1.000000
x146x315x3                    1.000000
x182x153x3                    1.000000
x182x198x3                    1.000000
x73x147x3                     1.000000
x276x153x3                    1.000000
x38x177x3                     1.000000
x32x34x2                      2.000000
x147x43x2                     1.000000
x147x241x3                    1.000000
x177x155x1                    1.000000
x177x339x3                    1.000000
x92x18x1                      1.000000
x92x18x3                      1.000000
x315x23x2                     1.000000
x315x270x3                    1.000000
x196x162x1                    1.000000
x196x162x2                    1.000000
x298x318x1                    2.000000
x318x11x1                     1.000000
x318x328x1                    1.000000
x15x237x1                     2.000000
x34x0x2                       1.000000
x34x119x2                     1.000000
x153x155x3                    1.000000
x153x211x3                    1.000000
x88x299x2                     1.000000
x88x43x3                      1.000000
x224x58x1                     2.000000
x18x0x1                       1.000000
x18x0x3                       1.000000
x43x328x2                     1.000000
x43x0x3                       1.000000
x139x20x3                     1.000000
x139x11x3                     1.000000
x198x20x1                     1.000000
x198x241x3                    1.000000
x56x77x1                      1.000000
x56x76x2                      1.000000
x39x211x2                     1.000000
x39x23x2                      1.000000
x237x0x1                      2.000000
x339x187x2                    1.000000
x339x187x3                    1.000000
x241x0x3                      2.000000
x155x0x1                      1.000000
x155x0x3                      1.000000
x26x77x3                      1.000000
x26x119x3                     1.000000
x76x0x2                       2.000000
x211x0x2                      1.000000
x211x0x3                      1.000000
x270x0x2                      1.000000
x270x0x3                      1.000000
x20x0x1                       1.000000
x20x0x3                       1.000000
x23x0x2                       2.000000
x299x0x1                      1.000000
x299x0x2                      1.000000
x162x0x1                      1.000000
x162x0x2                      1.000000
x77x0x1                       1.000000
x77x0x3                       1.000000
x119x0x2                      1.000000
x119x0x3                      1.000000
x187x0x2                      1.000000
x187x0x3                      1.000000
x11x0x1                       1.000000
x11x0x3                       1.000000
x58x0x1                       2.000000
x328x0x1                      1.000000
x328x0x2                      1.000000
s72                           6.239197
s196                          7.464766
z72z196z1                     1.000000
z72z196z2                     1.000000
s29                           6.920000
s298                          6.983334
s318                          7.990000
s183                          7.000000
s16                           8.010000
s3                            7.100000
s15                           7.319397
s34                           8.088982
s185                          7.200000
s88                           7.280572
s224                          8.024829
s18                           8.240000
s302                          8.240000
s83                           7.250000
s163                          7.270000
s43                           8.290000
s300                          7.993109
s213                          7.330000
s131                          8.340000
s198                          7.594799
s56                           7.498802
s66                           7.370000
s2                            8.390000
s184                          7.390000
s89                           7.430000
s221                          7.450000
s239                          8.470000
s39                           7.480000
s237                          8.520000
s339                          8.249722
s150                          8.570000
s106                          8.610000
s332                          7.640000
s306                          8.660000
s301                          7.680000
s217                          8.710000
s257                          8.710000
s1                            8.820000
s155                          8.820000
s76                           8.830000
s211                          8.830000
s322                          8.850000
s261                          8.870000
s96                           8.092092
s259                          7.910000
s270                          8.920000
s20                           8.940000
s23                           8.609335
s299                          8.950000
s151                          9.070000
z72z151z1                     1.000000
s162                          9.070000
s105                          9.110000
z72z105z2                     1.000000
s77                           9.260000
s119                          9.330000
s187                          9.410000
s168                          9.420000
z72z168z2                     1.000000
s312                          9.430000
s11                           9.460000
s58                           9.460000
z72z58z1                      1.000000
s328                          9.460000
s110                          6.394347
z110z318z1                    1.000000
z110z224z1                    1.000000
z110z217z1                    1.000000
z110z96z1                     1.000000
z110z58z1                     1.000000
s124                          6.070647
s75                           7.189506
s153                          7.301176
s139                          7.647758
z124z139z3                    1.000000
s233                          7.351305
s241                          8.810000
s26                           7.830000
s200                          6.313690
z200z76z2                     1.000000
z200z299z1                    1.000000
z200z151z1                    1.000000
z200z105z2                    1.000000
z200z168z2                    1.000000
z200z58z1                     1.000000
s264                          6.390132
z264z34z2                     1.000000
z264z300z2                    1.000000
z264z339z2                    1.000000
z264z270z2                    1.000000
z264z105z2                    1.000000
z264z168z2                    1.000000
s290                          4.977520
s40                           5.570000
s19                           6.936835
s28                           6.010000
s147                          6.994123
s177                          7.067757
s67                           6.389193
s321                          7.257567
s148                          6.460000
s92                           7.036595
s315                          7.299137
z290z75z3                     1.000000
z290z153z3                    1.000000
z290z139z3                    1.000000
z290z233z3                    1.000000
z290z241z3                    1.000000
z290z26z3                     1.000000
s103                          5.039420
s17                           5.880000
s126                          6.986503
z103z147z2                    1.000000
z103z177z1                    1.000000
s234                          6.220000
s317                          6.400000
s289                          6.420000
z103z163z2                    1.000000
z103z300z2                    1.000000
z103z66z2                     1.000000
z103z89z2                     1.000000
z103z221z2                    1.000000
z103z239z1                    1.000000
z103z39z2                     1.000000
z103z237z1                    1.000000
z103z150z1                    1.000000
z103z301z2                    1.000000
z103z217z1                    1.000000
z103z257z1                    1.000000
z103z76z2                     1.000000
z103z96z1                     1.000000
z103z259z2                    1.000000
z103z23z2                     1.000000
z103z151z1                    1.000000
z103z105z2                    1.000000
z103z168z2                    1.000000
z103z58z1                     1.000000
s260                          5.104820
z260z15z1                     1.000000
z260z239z1                    1.000000
z260z237z1                    1.000000
z260z150z1                    1.000000
z260z217z1                    1.000000
z260z257z1                    1.000000
z260z96z1                     1.000000
z260z151z1                    1.000000
z260z58z1                     1.000000
s165                          5.137350
z165z92z3                     1.000000
z165z75z3                     1.000000
z165z153z3                    1.000000
z165z139z3                    1.000000
z165z233z3                    1.000000
z165z241z3                    1.000000
z165z26z3                     1.000000
s288                          5.228700
z288z88z3                     1.000000
z288z241z3                    1.000000
z288z26z3                     1.000000
s146                          5.272210
z146z315z3                    1.000000
z146z56z2                     1.000000
z146z39z2                     1.000000
z146z301z2                    1.000000
z146z241z3                    1.000000
z146z26z3                     1.000000
z146z76z2                     1.000000
z146z259z2                    1.000000
z146z23z2                     1.000000
z146z105z2                    1.000000
z146z168z2                    1.000000
s182                          5.302410
z182z75z3                     1.000000
z182z153z3                    1.000000
z182z139z3                    1.000000
z182z198z3                    1.000000
z182z233z3                    1.000000
z182z241z3                    1.000000
z182z26z3                     1.000000
s193                          5.412850
z193z92z1                     1.000000
z193z298z1                    1.000000
z193z318z1                    1.000000
z193z239z1                    1.000000
z193z237z1                    1.000000
z193z150z1                    1.000000
z193z217z1                    1.000000
z193z257z1                    1.000000
z193z96z1                     1.000000
z193z151z1                    1.000000
z193z58z1                     1.000000
s73                           5.105660
z73z147z3                     1.000000
z73z75z3                      1.000000
z73z163z2                     1.000000
z73z139z3                     1.000000
z73z300z2                     1.000000
z73z233z3                     1.000000
z73z66z2                      1.000000
z73z89z2                      1.000000
z73z221z2                     1.000000
z73z39z2                      1.000000
z73z301z2                     1.000000
z73z241z3                     1.000000
z73z26z3                      1.000000
z73z76z2                      1.000000
z73z259z2                     1.000000
z73z23z2                      1.000000
z73z105z2                     1.000000
z73z168z2                     1.000000
s335                          5.269600
s32                           6.629755
z335z32z2                     1.000000
s78                           5.680000
z335z34z2                     1.000000
z335z163z2                    1.000000
z335z300z2                    1.000000
z335z66z2                     1.000000
z335z89z2                     1.000000
z335z221z2                    1.000000
z335z39z2                     1.000000
z335z301z2                    1.000000
z335z76z2                     1.000000
z335z259z2                    1.000000
z335z23z2                     1.000000
z335z105z2                    1.000000
z335z168z2                    1.000000
s276                          5.507230
z276z315z2                    1.000000
z276z75z3                     1.000000
z276z153z3                    1.000000
z276z163z2                    1.000000
z276z139z3                    1.000000
z276z300z2                    1.000000
z276z233z3                    1.000000
z276z66z2                     1.000000
z276z89z2                     1.000000
z276z221z2                    1.000000
z276z39z2                     1.000000
z276z301z2                    1.000000
z276z241z3                    1.000000
z276z26z3                     1.000000
z276z76z2                     1.000000
z276z259z2                    1.000000
z276z23z2                     1.000000
z276z105z2                    1.000000
z276z168z2                    1.000000
s50                           5.500050
z50z88z2                      1.000000
z50z163z2                     1.000000
z50z300z2                     1.000000
z50z198z1                     1.000000
z50z66z2                      1.000000
z50z89z2                      1.000000
z50z221z2                     1.000000
z50z239z1                     1.000000
z50z39z2                      1.000000
z50z237z1                     1.000000
z50z150z1                     1.000000
z50z301z2                     1.000000
z50z217z1                     1.000000
z50z257z1                     1.000000
z50z76z2                      1.000000
z50z96z1                      1.000000
z50z259z2                     1.000000
z50z23z2                      1.000000
z50z151z1                     1.000000
z50z105z2                     1.000000
z50z168z2                     1.000000
z50z58z1                      1.000000
s285                          5.399820
z285z298z1                    1.000000
z285z318z1                    1.000000
z285z83z1                     1.000000
z285z163z2                    1.000000
z285z300z2                    1.000000
z285z66z2                     1.000000
z285z89z2                     1.000000
z285z221z2                    1.000000
z285z239z1                    1.000000
z285z39z2                     1.000000
z285z237z1                    1.000000
z285z150z1                    1.000000
z285z301z2                    1.000000
z285z217z1                    1.000000
z285z257z1                    1.000000
z285z76z2                     1.000000
z285z96z1                     1.000000
z285z259z2                    1.000000
z285z23z2                     1.000000
z285z151z1                    1.000000
z285z105z2                    1.000000
z285z168z2                    1.000000
z285z58z1                     1.000000
s38                           5.531290
z38z177z3                     1.000000
z38z75z3                      1.000000
z38z139z3                     1.000000
z38z233z3                     1.000000
z38z56z1                      1.000000
z38z239z1                     1.000000
z38z237z1                     1.000000
z38z150z1                     1.000000
z38z217z1                     1.000000
z38z257z1                     1.000000
z38z241z3                     1.000000
z38z26z3                      1.000000
z38z96z1                      1.000000
z38z151z1                     1.000000
z38z58z1                      1.000000
s206                          5.410000
s45                           5.490000
s267                          5.500000
s330                          5.540000
s327                          5.570000
s135                          5.530000
z32z34z2                      1.000000
z32z105z2                     1.000000
z32z168z2                     1.000000
z78z168z2                     1.000000
z17z168z2                     1.000000
z19z58z1                      1.000000
z28z75z3                      1.000000
z28z233z3                     1.000000
z126z168z2                    1.000000
z126z58z1                     1.000000
z147z43z2                     1.000000
z147z241z3                    1.000000
z147z168z2                    1.000000
z177z339z3                    1.000000
z177z155z1                    1.000000
z177z58z1                     1.000000
z67z26z3                      1.000000
z148z58z1                     1.000000
z92z18z1                      1.000000
z92z18z3                      1.000000
z92z58z1                      1.000000
z315z270z3                    1.000000
z315z23z2                     1.000000
z196z162z1                    1.000000
z196z162z2                    1.000000
z196z58z1                     1.000000
z298z318z1                    1.000000
z298z237z1                    1.000000
z298z58z1                     1.000000
z318z11z1                     1.000000
z318z58z1                     1.000000
z318z328z1                    1.000000
z183z58z1                     1.000000
z16z58z1                      1.000000
z15z239z1                     1.000000
z15z237z1                     1.000000
z15z217z1                     1.000000
z15z58z1                      1.000000
z34z119z2                     1.000000
z153z155z3                    1.000000
z153z211z3                    1.000000
z185z58z1                     1.000000
z88z43z3                      1.000000
z88z299z2                     1.000000
z224z58z1                     1.000000
z43z328z2                     1.000000
z139z20z3                     1.000000
z139z11z3                     1.000000
z198z241z3                    1.000000
z198z20z1                     1.000000
z56z76z2                      1.000000
z56z77z1                      1.000000
z39z76z2                      1.000000
z39z211z2                     1.000000
z39z23z2                      1.000000
z339z187z2                    1.000000
z339z187z3                    1.000000
z26z77z3                      1.000000
z26z119z3                     1.000000
All other variables in the range 1-7875 are 0.
